NAME : cgl_32.7141.tour
COMMENT : Length = 7141
COMMENT : Found by LKH-3 [Keld Helsgaun] Fri Nov  8 17:37:18 2024
TYPE : TOUR
DIMENSION : 32
TOUR_SECTION
5
15
8
16
14
18
11
17
20
19
21
12
10
7
9
13
22
23
24
25
26
27
6
28
32
1
30
31
29
2
3
4
-1
EOF
